Solving original (integer) problem with strategy gdp.binary_multiplication...
--- Job model.gms Start 02/19/26 00:36:30 52.2.0 d8e408be LEX-LEG x86 64bit/Linux
--- Applying:
    /package/gams/52.2/gmsprmun.txt
--- GAMS Parameters defined
    Input /local/scratch/a/sgusev/repos/k_means/data/gams_gurobi_gdp.binary_multiplication/no_mode/2026-02-19_00-36-30/original/model.gms
    Output /local/scratch/a/sgusev/repos/k_means/data/gams_gurobi_gdp.binary_multiplication/no_mode/2026-02-19_00-36-30/original/output.lst
    ScrDir /local/scratch/a/sgusev/repos/k_means/data/gams_gurobi_gdp.binary_multiplication/no_mode/2026-02-19_00-36-30/original/225a/
    SysDir /package/gams/52.2/
    CurDir /local/scratch/a/sgusev/repos/k_means/data/gams_gurobi_gdp.binary_multiplication/no_mode/2026-02-19_00-36-30/original/
    LogOption 3
    AppendLog 1
Licensee: David Bernal / SECQUOIA Research Group         G251008+0003Ac-GEN
          Purdue University, Davidson School of Chemical EngineeringDCE4838
          225a/gamslice.dat
          5a82958a-fbca-4a23
          node:66820903 mem:995 cores:48 ipport:56261 v:2                  
          Evaluation license: Not for commercial or production use
          The time-limited license stops working on : Jun 30, 2027
System information: 48 physical cores and 995 Gb physical memory detected
GAMS 52.2.0   Copyright (C) 1987-2025 GAMS Development. All rights reserved
--- Starting compilation
--- model.gms(285) 2 Mb
--- $echo File /local/scratch/a/sgusev/repos/k_means/data/gams_gurobi_gdp.binary_multiplication/no_mode/2026-02-19_00-36-30/original/gurobi.opt
--- model.gms(504) 2 Mb
--- Starting execution: elapsed 0:00:00.006
--- model.gms(294) 3 Mb
--- Generating MINLP model GAMS_MODEL
--- model.gms(298) 5 Mb
---   74 rows  79 columns  301 non-zeroes
---   616 nl-code  224 nl-non-zeroes
---   56 discrete-columns
--- Range statistics (absolute non-zero finite values)
--- RHS       [min, max] : [ 1.000E+00, 1.000E+00] - Zero values observed as well
--- Bound     [min, max] : [ 1.000E+00, 5.600E+01] - Zero values observed as well
--- Matrix    [min, max] : [ 2.433E-01, 1.275E+00] - Zero values observed as well
--- model.gms(298) 3 Mb
--- Executing GUROBI (Solvelink=5): elapsed 0:00:00.009
Reading parameter(s) from "/local/scratch/a/sgusev/repos/k_means/data/gams_gurobi_gdp.binary_multiplication/no_mode/2026-02-19_00-36-30/original/gurobi.opt"
>>  NonConvex 2
>>  Threads 1
>>  MIPGap 1e-06
>>  MIPGapAbs 1e-10
>>  FeasibilityTol 1e-06
>>  OptimalityTol 1e-06
>>  IntFeasTol 1e-05
Finished reading from "/local/scratch/a/sgusev/repos/k_means/data/gams_gurobi_gdp.binary_multiplication/no_mode/2026-02-19_00-36-30/original/gurobi.opt"

... GRB_LICENSE_FILE = /local/scratch/a/sgusev/gurobi.lic

    Gurobi           52.2.0 d8e408be Dec 8, 2025           LEG x86 64bit/Linux    

... GAMS/Gurobi Link license.
... GMO Q Extraction (ThreePass): 0.00s

    Gurobi Optimizer version 13.0.0 build v13.0.0rc1 (linux64 - "Oracle Linux Server 9.7")
    
    CPU model: AMD EPYC 7643 48-Core Processor, instruction set [SSE2|AVX|AVX2]
    Thread count: 48 physical cores, 96 logical processors, using up to 1 threads
    
    Non-default parameters:
    TimeLimit  300
    MIPGap  1e-06
    LogToConsole  0
    NonConvex  2
    Threads  1
    
    Optimize a model with 73 rows, 134 columns and 118 nonzeros (Min)
    Model fingerprint: 0xa3e18dcd
    Model has 14 linear objective coefficients
    Model has 56 general nonlinear constraints (168 nonlinear terms)
    Variable types: 78 continuous, 56 integer (0 binary)
    Coefficient statistics:
      Matrix range     [1e+00, 1e+00]
      Objective range  [1e+00, 1e+00]
      Bounds range     [1e+00, 6e+01]
      RHS range        [1e+00, 1e+00]
      NLCon coe range  [6e-02, 1e+00]
    Presolve model has 56 nlconstr
    Added 280 variables to disaggregate expressions
    Presolve removed 56 rows and 0 columns
    Presolve time: 0.00s
    Presolved: 745 rows, 471 columns, 1742 nonzeros
    Presolved model has 112 bilinear constraint(s)
    
    Solving non-convex MIQCP to global optimality
    
    Variable types: 415 continuous, 56 integer (56 binary)
    Found heuristic solution: objective 8.0798278
    
    Root relaxation: objective 0.000000e+00, 126 iterations, 0.00 seconds (0.00 work units)
    
        Nodes    |    Current Node    |     Objective Bounds      |     Work
     Expl Unexpl |  Obj  Depth IntInf | Incumbent    BestBd   Gap | It/Node Time
    
         0     0    0.00000    0   70    8.07983    0.00000   100%     -    0s
    H    0     0                       7.8879945    0.00000   100%     -    0s
         0     0    0.00000    0   92    7.88799    0.00000   100%     -    0s
         0     0    0.00000    0  134    7.88799    0.00000   100%     -    0s
         0     0    0.00000    0  112    7.88799    0.00000   100%     -    0s
    H    0     0                       2.7581307    0.00000   100%     -    0s
         0     0    0.00000    0  116    2.75813    0.00000   100%     -    0s
         0     0    0.00000    0  128    2.75813    0.00000   100%     -    0s
         0     0    0.00000    0  115    2.75813    0.00000   100%     -    0s
         0     0    0.00000    0   85    2.75813    0.00000   100%     -    0s
         0     0    0.00000    0  135    2.75813    0.00000   100%     -    0s
         0     0    0.00000    0  113    2.75813    0.00000   100%     -    0s
         0     0    0.00000    0  113    2.75813    0.00000   100%     -    0s
    H    0     0                       2.7457332    0.00000   100%     -    0s
    H    0     0                       2.7399051    0.00000   100%     -    0s
         0     2    0.00000    0  113    2.73991    0.00000   100%     -    0s
    H    3     3                       2.7399051    0.00000   100%   3.0    0s
    H    7     7                       2.7399051    0.00000   100%   8.0    0s
    H    8     8                       2.2373073    0.00000   100%   7.5    0s
    H    9     9                       2.1862105    0.00000   100%  11.3    0s
    H   35    35                       2.1458783    0.00000   100%  15.8    0s
    H   35    35                       2.1457378    0.00000   100%  15.8    0s
    H   35    35                       2.1457351    0.00000   100%  15.8    0s
    H   91    74                       1.8572558    0.00000   100%  13.4    0s
    H   98    81                       1.7688511    0.00000   100%  14.0    0s
    H  339   202                       1.5379608    0.00000   100%  16.4    0s
    H  339   201                       1.5115910    0.00000   100%  16.4    0s
    H  364   199                       1.3109984    0.00000   100%  16.2    0s
    H  661   321                       1.3107968    0.00000   100%  16.0    0s
    H  661   321                       1.3102926    0.00000   100%  16.0    0s
    H  661   321                       1.3102891    0.00000   100%  16.0    0s
    H  831   368                       1.3006945    0.00000   100%  19.3    1s
    H  835   351                       1.3006729    0.00000   100%  19.3    1s
    H  929   353                       1.3006729    0.00000   100%  20.0    1s
    H 1119   363                       1.3006316    0.00000   100%  20.9    1s
    H 1269   380                       1.2349077    0.00000   100%  21.9    1s
    H 1309   364                       1.2204158    0.00000   100%  22.2    1s
    H 1309   350                       1.2204044    0.00000   100%  22.2    1s
    H 1578   363                       1.2204007    0.00000   100%  22.9    2s
    H 1770   443                       1.1191839    0.00000   100%  22.7    2s
    H 1988   541                       1.1191820    0.00000   100%  22.5    2s
    H 2006   543                       1.1191820    0.00000   100%  22.5    2s
    H 2370   602                       1.1191820    0.00000   100%  23.1    3s
      3878   722    0.28548   32   76    1.11918    0.12210  89.1%  25.7    5s
    H 5635   741                       1.1100134    0.42195  62.0%  25.2    6s
    H 6635   780                       1.1100115    0.55139  50.3%  24.2    7s
      9903  1163    1.07909   51   84    1.11001    0.78212  29.5%  20.6   10s
     15626  1470    1.02296   53   70    1.11001    0.96264  13.3%  16.9   15s
     23487  2139    1.10125   62   42    1.11001    1.04558  5.80%  13.9   20s
     31495  2314    1.10466   76   56    1.11001    1.07369  3.27%  12.4   25s
     38625  2388    1.09177   70   37    1.11001    1.08811  1.97%  11.9   30s
     46314  2601    1.10247   68   81    1.11001    1.09735  1.14%  11.4   35s
     54479  2686    1.10091   76   42    1.11001    1.10069  0.84%  10.8   40s
     63116  2533     cutoff   63         1.11001    1.10439  0.51%  10.2   45s
     71397  3104    1.10988   82   70    1.11001    1.10724  0.25%   9.7   50s
     80476  3443    1.10992   82   56    1.11001    1.10820  0.16%   9.2   55s
     89495  3500     cutoff   94         1.11001    1.10858  0.13%   8.8   60s
     99059  4000    1.10980   89   44    1.11001    1.10886  0.10%   8.4   65s
     108244  4417    1.10971   79   56    1.11001    1.10905  0.09%   8.2   70s
    *110854  4544             114       1.1100035    1.10910  0.08%   8.1   71s
     117574  5166    1.10998  101   30    1.11000    1.10917  0.08%   8.0   75s
     127582  5906     cutoff   79         1.11000    1.10923  0.07%   7.8   80s
     137625  6563    1.10981   97   30    1.11000    1.10929  0.06%   7.6   85s
     147193  6967    1.10941  100   56    1.11000    1.10933  0.06%   7.5   90s
     156514  7086    1.10992   93   14    1.11000    1.10937  0.06%   7.5   95s
     165513  7093    1.10975   95   28    1.11000    1.10942  0.05%   7.4  100s
     174613  7241     cutoff   99         1.11000    1.10946  0.05%   7.4  105s
     184221  7437    1.10955   88   56    1.11000    1.10950  0.05%   7.4  110s
     193237  7567    1.10955   87   42    1.11000    1.10954  0.04%   7.4  115s
     202744  7990     cutoff   92         1.11000    1.10958  0.04%   7.4  120s
     211878  8024    1.10975   92   28    1.11000    1.10962  0.03%   7.3  125s
     221303  8237     cutoff   97         1.11000    1.10965  0.03%   7.3  130s
     230518  8470     cutoff   97         1.11000    1.10969  0.03%   7.3  135s
     239789  8573    1.10979  102   28    1.11000    1.10972  0.03%   7.3  140s
     248720  8402    1.10991   95   28    1.11000    1.10975  0.02%   7.3  145s
     257819  8153    1.10990   96   44    1.11000    1.10978  0.02%   7.3  150s
     266931  8045    1.10985  100   56    1.11000    1.10981  0.02%   7.3  155s
     277587  7685    1.10999  107   44    1.11000    1.10983  0.02%   7.2  160s
     287701  7223    1.10991   99   28    1.11000    1.10986  0.01%   7.1  165s
     298012  6436    1.10995   97   30    1.11000    1.10988  0.01%   7.0  170s
     308232  5092    1.10994   98   28    1.11000    1.10991  0.01%   6.9  175s
     317689  3415    1.10998   99   28    1.11000    1.10994  0.01%   6.8  180s
    
    Cutting planes:
      Gomory: 2
      Implied bound: 25
      Projected implied bound: 1
      MIR: 8
      Flow cover: 63
      RLT: 8
    
    Explored 326814 nodes (2191518 simplex iterations) in 184.78 seconds (128.96 work units)
    Thread count was 1 (of 96 available processors)
    
    Solution count 10: 1.11 1.11001 1.11001 ... 1.30063
    
    Optimal solution found (tolerance 1.00e-06)
    Warning: max constraint violation (1.2956e-06) exceeds tolerance
    Warning: max general constraint violation (1.2956e-06) exceeds tolerance
    Best objective 1.110003497999e+00, best bound 1.110002397606e+00, gap 0.0001%
    
    User-callback calls 326855, time in user-callback 0.01 sec

... Solving fixed model...

    Gurobi Optimizer version 13.0.0 build v13.0.0rc1 (linux64 - "Oracle Linux Server 9.7")
    
    CPU model: AMD EPYC 7643 48-Core Processor, instruction set [SSE2|AVX|AVX2]
    Thread count: 48 physical cores, 96 logical processors, using up to 1 threads
    
    Non-default parameters:
    TimeLimit  300
    MIPGap  1e-06
    LogToConsole  0
    NonConvex  2
    Threads  1
    
    Optimize a model with 73 rows, 134 columns and 118 nonzeros (Min)
    Model fingerprint: 0x000e0184
    Model has 14 linear objective coefficients
    Coefficient statistics:
      Matrix range     [1e+00, 1e+00]
      Objective range  [1e+00, 1e+00]
      Bounds range     [4e-03, 1e+00]
      RHS range        [1e+00, 1e+00]
    Presolve removed 73 rows and 134 columns
    Presolve time: 0.00s
    Presolve: All rows and columns removed
    Iteration    Objective       Primal Inf.    Dual Inf.      Time
           0    1.1100035e+00   0.000000e+00   0.000000e+00      0s
    
    Solved in 0 iterations and 0.00 seconds (0.00 work units)
    Optimal objective  1.110003498e+00
    
    User-callback calls 0, time in user-callback 0.00 sec

--- Reading solution for model GAMS_MODEL
***
*** Solver did not provide marginals for model GAMS_MODEL
***
--- Executing after solve: elapsed 0:03:04.816
--- model.gms(301) 3 Mb
--- model.gms(504) 5 Mb
--- Putfile results /local/scratch/a/sgusev/repos/k_means/data/gams_gurobi_gdp.binary_multiplication/no_mode/2026-02-19_00-36-30/original/results.dat
--- Putfile statresults /local/scratch/a/sgusev/repos/k_means/data/gams_gurobi_gdp.binary_multiplication/no_mode/2026-02-19_00-36-30/original/resultsstat.dat
*** Status: Normal completion
--- Job model.gms Stop 02/19/26 00:39:35 elapsed 0:03:04.817
Original problem solved. Time taken: 185.28043150901794 seconds
Original objective value: 1.110003497999234
